% Escenario 8:
% - 4 plantas (dos hidro) y 3 clientes
% - 4 días
% Más complejidad, se mezcla nuclear, 2 hidro, térmica.

np = 4;
nc = 3;
nd = 4;

nombrePlanta = ["Nuclear", "Hidroelectrica1", "Hidroelectrica2", "Termica"];
nombreCliente = ["ClienteA", "ClienteB", "ClienteC"];

costo = [40.0, 22.0, 25.0, 55.0];
cap = [1000, 300, 300, 500];
pago = [90.0, 100.0, 95.0];

dem = array2d(1..nc, 1..nd, [
   60, 80, 110, 100,
   100, 110, 120, 130,
   200, 150, 100, 80
]);

G = 0.50;

umbralAlto = [0.8, 0.75, 0.75, 0.8];
maxDiasAlto = [2, 1, 1, 2];
